124
100000000
11912527
7444393
10559885
4043416
18279919
5538437
9787132
12901800
16489951
2359748
24461172
5834011
21075004
7101864
9939169
4794477
20686001
3596955
7013420
16156559
9788980
6557833
18554619
8680743
9498236
23618172
22478569
21157882
9751311
4705915
15684336
12877775
3851721
13896513
13715562
15540858
22883641
8435409
520034
6376107
5090059
21834394
788872
5341129
12612078
13827187
3705710
9548335
7245911
11749186
15203918
21179609
23915868
22296579
2877986
17941010
14883606
6338711
6630660
17244434
19614547
11983513
15458
22871166
19604507
3990668
18344663
3761723
11552187
18910710
9851425
4930122
18255115
9699220
24136803
4197468
6901613
13228870
18520236
2197216
17280505
20184242
7798389
18742415
15757816
21432718
20336999
7298837
17320512
2215294
635402
17913118
21543875
18348251
20303101
7416604
17449326
11837501
4789448
11689858
21251103
9077351
7593843
14788086
7688697
17311592
2254292
20654424
20404366
571688
22596617
9206526
603953
6628386
9290791
4985617
5924212
16610402
20813582
15281165
17187151
847335
11175352
5586730
